objective value:                                    0
z[4]                                                1 	(obj:0)
z[10]                                               1 	(obj:0)
z[11]                                               1 	(obj:0)
z[12]                                               1 	(obj:0)
z[17]                                               1 	(obj:0)
r[14,0,6]                            36.1287025664412 	(obj:0)
r[14,1,6]                            30.0488271010039 	(obj:0)
r[14,2,6]                            35.3217670509473 	(obj:0)
r[14,0,7]                            31.2855104247371 	(obj:0)
r[14,1,7]                            28.3360439562467 	(obj:0)
r[14,2,7]                            33.8891201355799 	(obj:0)
r[14,0,8]                            26.7852162866657 	(obj:0)
r[14,1,8]                               22.3844449824 	(obj:0)
r[14,2,8]                            27.7525283497912 	(obj:0)
r[14,0,9]                            22.6035429735698 	(obj:0)
r[14,1,9]                             16.371364410599 	(obj:0)
r[14,2,9]                            21.1570456289781 	(obj:0)
r[14,0,10]                           14.3841133414293 	(obj:0)
r[14,1,10]                           12.2459343312168 	(obj:0)
r[14,2,10]                           15.3948888735297 	(obj:0)
r[15,0,0]                                          74 	(obj:0)
r[15,1,0]                                          63 	(obj:0)
r[15,2,0]                                          99 	(obj:0)
r[15,0,1]                            67.0969590088626 	(obj:0)
r[15,1,1]                            56.5114188936268 	(obj:0)
r[15,2,1]                                    93.54006 	(obj:0)
r[15,0,2]                            60.0612143087499 	(obj:0)
r[15,1,2]                            48.5531008088859 	(obj:0)
r[15,2,2]                            49.0976549370135 	(obj:0)
r[15,0,3]                            55.8088803346836 	(obj:0)
r[15,1,3]                            45.7855740627794 	(obj:0)
r[15,2,3]                            48.4208497182953 	(obj:0)
r[15,0,4]                            50.3286121565284 	(obj:0)
r[15,1,4]                             40.609352013037 	(obj:0)
r[15,2,4]                            44.4752062251095 	(obj:0)
r[15,0,5]                             44.488324232982 	(obj:0)
r[15,1,5]                            33.5857055692581 	(obj:0)
r[15,2,5]                            38.8437408834379 	(obj:0)
r[15,0,6]                            39.0532708750016 	(obj:0)
r[15,1,6]                            26.9341531440062 	(obj:0)
r[15,2,6]                            33.0271362674065 	(obj:0)
r[15,0,7]                            34.7308765404955 	(obj:0)
r[15,1,7]                            22.7644502495778 	(obj:0)
r[15,2,7]                            28.5313029134392 	(obj:0)
r[15,0,8]                            30.0025527410467 	(obj:0)
r[15,1,8]                            16.7840171923699 	(obj:0)
r[15,2,8]                            22.3971022014556 	(obj:0)
r[15,0,9]                            26.4766878942861 	(obj:0)
r[15,1,9]                            13.5542919765659 	(obj:0)
r[15,2,9]                            17.8520774501417 	(obj:0)
r[15,0,10]                           12.0953898923687 	(obj:0)
r[15,1,10]                           10.2974265299896 	(obj:0)
r[15,2,10]                           12.9453362091297 	(obj:0)
r[16,0,0]                                          74 	(obj:0)
r[16,1,0]                                          63 	(obj:0)
r[16,2,0]                                          99 	(obj:0)
r[16,0,1]                                    66.47552 	(obj:0)
r[16,1,1]                            54.7006017083521 	(obj:0)
r[16,2,1]                                    93.54006 	(obj:0)
r[16,0,2]                                59.483773184 	(obj:0)
r[16,1,2]                            49.8804756691108 	(obj:0)
r[16,2,2]                            52.7814467303791 	(obj:0)
r[16,0,3]                            52.9870420425728 	(obj:0)
r[16,1,3]                            45.0188522468679 	(obj:0)
r[16,2,3]                            49.4102829990235 	(obj:0)
r[16,0,4]                            46.9502794659587 	(obj:0)
r[16,1,4]                            37.8272676535233 	(obj:0)
r[16,2,4]                            43.8785522785138 	(obj:0)
r[16,0,5]                            41.3409196797688 	(obj:0)
r[16,1,5]                            30.9883573727477 	(obj:0)
r[16,2,5]                            38.1494979262051 	(obj:0)
r[16,0,6]                            36.1287025664412 	(obj:0)
r[16,1,6]                            24.4848537946969 	(obj:0)
r[16,2,6]                            32.2113474428225 	(obj:0)
r[16,0,7]                            31.2855104247371 	(obj:0)
r[16,1,7]                            21.9348819068378 	(obj:0)
r[16,2,7]                            29.0924372145557 	(obj:0)
r[16,0,8]                            26.7852162866657 	(obj:0)
r[16,1,8]                             18.503345293128 	(obj:0)
r[16,2,8]                            24.6530711325081 	(obj:0)
r[16,0,9]                            22.6035429735698 	(obj:0)
r[16,1,9]                            15.4138114933183 	(obj:0)
r[16,2,9]                            20.1307802218569 	(obj:0)
r[16,0,10]                           13.6155373519906 	(obj:0)
r[16,1,10]                            11.591606123992 	(obj:0)
r[16,2,10]                             14.57230484159 	(obj:0)
r[17,0,0]                                          74 	(obj:0)
r[17,1,0]                                          63 	(obj:0)
r[17,2,0]                                          99 	(obj:0)
r[17,0,1]                                          67 	(obj:0)
r[17,2,1]                                          94 	(obj:0)
r[17,0,2]                                          60 	(obj:0)
r[17,0,3]                                          53 	(obj:0)
r[17,0,4]                                          47 	(obj:0)
r[17,0,5]                                          42 	(obj:0)
r[17,0,6]                                          37 	(obj:0)
r[17,0,7]                                          32 	(obj:0)
r[17,0,8]                                          27 	(obj:0)
r[17,0,9]                                          23 	(obj:0)
r[18,0,0]                                          74 	(obj:0)
r[18,1,0]                                          63 	(obj:0)
r[18,2,0]                                          99 	(obj:0)
r[18,0,1]                                    66.47552 	(obj:0)
r[18,1,1]                            54.6718327921958 	(obj:0)
r[18,2,1]                                    93.54006 	(obj:0)
r[18,0,2]                                59.483773184 	(obj:0)
r[18,1,2]                            49.2614922307433 	(obj:0)
r[18,2,2]                            89.7725001449752 	(obj:0)
r[18,0,3]                            52.9870420425728 	(obj:0)
r[18,1,3]                            46.4535871735909 	(obj:0)
r[18,2,3]                            88.7753829452995 	(obj:0)
r[18,0,4]                            46.9502794659587 	(obj:0)
r[18,1,4]                             39.068565496892 	(obj:0)
r[18,2,4]                            82.8806450201263 	(obj:0)
r[18,0,5]                            41.3409196797688 	(obj:0)
r[18,1,5]                            32.5366611568907 	(obj:0)
r[18,2,5]                            77.0946998110476 	(obj:0)
r[18,0,6]                            36.2372222528647 	(obj:0)
r[18,1,6]                              26.30732285037 	(obj:0)
r[18,2,6]                            32.8710316522235 	(obj:0)
r[18,0,7]                            31.2855104247371 	(obj:0)
r[18,1,7]                            21.7255219761974 	(obj:0)
r[18,2,7]                            27.8796098057611 	(obj:0)
r[18,0,8]                            26.7852162866657 	(obj:0)
r[18,1,8]                              15.75000001575 	(obj:0)
r[18,2,8]                            21.5396957115156 	(obj:0)
r[18,0,9]                            22.6035429735698 	(obj:0)
r[18,1,9]                            11.8222787585047 	(obj:0)
r[18,2,9]                            16.1672403064596 	(obj:0)
r[18,0,10]                           10.6472198085771 	(obj:0)
r[18,1,10]                             9.064524972167 	(obj:0)
r[18,2,10]                           11.3954028221528 	(obj:0)
r[19,0,0]                                          74 	(obj:0)
r[19,1,0]                                          63 	(obj:0)
r[19,2,0]                                          99 	(obj:0)
r[19,0,1]                                    66.47552 	(obj:0)
r[19,1,1]                            56.2945686759131 	(obj:0)
r[19,2,1]                                    93.54006 	(obj:0)
r[19,0,2]                              61.18311899788 	(obj:0)
r[19,1,2]                            52.3182160076483 	(obj:0)
r[19,2,2]                            53.1776853897654 	(obj:0)
r[19,0,3]                            55.2623845514138 	(obj:0)
r[19,1,3]                            46.6250298648691 	(obj:0)
r[19,2,3]                            49.2192222402719 	(obj:0)
r[19,0,4]                            49.3630434863393 	(obj:0)
r[19,1,4]                             40.183045549838 	(obj:0)
r[19,2,4]                            44.3065931368261 	(obj:0)
r[19,0,5]                            44.2230974680614 	(obj:0)
r[19,1,5]                            35.0425031508456 	(obj:0)
r[19,2,5]                            39.9482817533007 	(obj:0)
r[19,0,6]                            39.8491715315103 	(obj:0)
r[19,1,6]                            31.1134347952394 	(obj:0)
r[19,2,6]                            36.2647855137694 	(obj:0)
r[19,0,7]                             35.651048233551 	(obj:0)
r[19,1,7]                            27.1221912889853 	(obj:0)
r[19,2,7]                             32.152465414111 	(obj:0)
r[19,0,8]                            31.1179453028728 	(obj:0)
r[19,1,8]                            21.7255219761974 	(obj:0)
r[19,2,8]                            26.5735222986345 	(obj:0)
r[19,0,9]                            26.6295147731441 	(obj:0)
r[19,1,9]                              15.75000001575 	(obj:0)
r[19,2,9]                            20.2343609993876 	(obj:0)
r[19,0,10]                           13.8864861607834 	(obj:0)
r[19,1,10]                           11.8222787585047 	(obj:0)
r[19,2,10]                            14.862293296406 	(obj:0)
y[0,1]                              0.160485717847173 	(obj:0)
y[0,2]                              0.848697468810544 	(obj:0)
y[0,3]                              0.252637220644632 	(obj:0)
y[0,4]                               0.68545891592202 	(obj:0)
y[0,5]                              0.687384163009175 	(obj:0)
y[0,6]                              0.434183729417886 	(obj:0)
y[0,7]                              0.612253175539949 	(obj:0)
y[0,8]                              0.589103820095867 	(obj:0)
y[0,9]                               1.70372628942724 	(obj:0)
y[0,10]                              1.15096292832487 	(obj:0)
y[1,1]                                           2.25 	(obj:0)
y[1,2]                              0.537476114948392 	(obj:0)
y[1,3]                              0.940800591847153 	(obj:0)
y[1,4]                              0.929262032472388 	(obj:0)
y[1,5]                              0.440588311511988 	(obj:0)
y[1,6]                              0.491189373749256 	(obj:0)
y[1,7]                                1.5371301442315 	(obj:0)
y[1,8]                              0.427336522875245 	(obj:0)
y[1,9]                              0.888185553047346 	(obj:0)
y[1,10]                             0.634373281024555 	(obj:0)
y[2,1]                                           2.25 	(obj:0)
y[2,2]                              0.928295966533891 	(obj:0)
y[2,3]                               1.79110870008852 	(obj:0)
y[2,4]                              0.329564715812143 	(obj:0)
y[2,5]                              0.299089790429204 	(obj:0)
y[2,6]                               0.49487391023669 	(obj:0)
y[2,7]                               0.86756303578758 	(obj:0)
y[2,8]                               0.62240222233358 	(obj:0)
y[2,9]                              0.471713671796124 	(obj:0)
y[2,10]                             0.370502892416029 	(obj:0)
y[3,1]                                          0.625 	(obj:0)
y[3,2]                               1.19382417459283 	(obj:0)
y[3,3]                                           2.25 	(obj:0)
y[3,4]                              0.525988543352977 	(obj:0)
y[3,5]                              0.500215347697961 	(obj:0)
y[3,6]                              0.435560640342695 	(obj:0)
y[3,7]                              0.443040444005686 	(obj:0)
y[3,8]                              0.561933381106648 	(obj:0)
y[3,9]                              0.419554088978115 	(obj:0)
y[3,10]                             0.721322783486426 	(obj:0)
y[5,1]                              0.765548763862532 	(obj:0)
y[5,2]                              0.912271658696043 	(obj:0)
y[5,3]                               1.12247264472226 	(obj:0)
y[5,4]                               1.97896331898999 	(obj:0)
y[5,5]                               1.15634941822377 	(obj:0)
y[5,6]                              0.781423594019251 	(obj:0)
y[5,7]                              0.571268521035935 	(obj:0)
y[5,8]                               0.43816143734473 	(obj:0)
y[5,9]                              0.346971646383999 	(obj:0)
y[5,10]                             0.281055238153861 	(obj:0)
y[6,1]                              0.186962555008456 	(obj:0)
y[6,2]                              0.033837774198022 	(obj:0)
y[6,3]                              0.445870625879106 	(obj:0)
y[6,4]                              0.314609860791123 	(obj:0)
y[6,5]                              0.691636029411765 	(obj:0)
y[6,6]                               1.64793685917646 	(obj:0)
y[6,7]                               0.74256249913465 	(obj:0)
y[6,8]                               0.56150384886931 	(obj:0)
y[6,9]                               1.21761336850433 	(obj:0)
y[6,10]                             0.822566310608726 	(obj:0)
y[7,1]                              0.598723717925378 	(obj:0)
y[7,2]                              0.450010783687041 	(obj:0)
y[7,3]                              0.548356416452041 	(obj:0)
y[7,4]                               1.42844604329491 	(obj:0)
y[7,5]                               1.31068064437824 	(obj:0)
y[7,6]                              0.779494444729746 	(obj:0)
y[7,7]                               1.12079316229453 	(obj:0)
y[7,8]                               1.60386122702853 	(obj:0)
y[7,9]                              0.736756771480854 	(obj:0)
y[7,10]                             0.744825377472072 	(obj:0)
y[8,1]                              0.402134741460089 	(obj:0)
y[8,2]                              0.572273102945529 	(obj:0)
y[8,3]                              0.205690379921521 	(obj:0)
y[8,4]                               1.31711624126794 	(obj:0)
y[8,5]                              0.739215193420245 	(obj:0)
y[8,6]                              0.712264373608606 	(obj:0)
y[8,7]                              0.765548763862532 	(obj:0)
y[8,8]                              0.806427429673599 	(obj:0)
y[8,9]                              0.689562059735543 	(obj:0)
y[8,10]                              1.25216767923249 	(obj:0)
y[9,1]                              0.326218972519875 	(obj:0)
y[9,2]                           5.44390232080023e-06 	(obj:0)
y[9,3]                              0.285108820347417 	(obj:0)
y[9,4]                              0.388565015154933 	(obj:0)
y[9,5]                              0.771274327283019 	(obj:0)
y[9,6]                              0.956344796363124 	(obj:0)
y[9,7]                              0.691636029411765 	(obj:0)
y[9,8]                              0.765548763862532 	(obj:0)
y[9,9]                              0.633943472754408 	(obj:0)
y[9,10]                              1.67149310083854 	(obj:0)
y[13,1]                             0.746687879043972 	(obj:0)
y[13,2]                              1.07602615011431 	(obj:0)
y[13,3]                                 1.08000000108 	(obj:0)
y[13,4]                              1.07602615011396 	(obj:0)
y[13,5]                             0.829041647683459 	(obj:0)
y[13,6]                              1.01006319456572 	(obj:0)
y[13,7]                                 1.08000000108 	(obj:0)
y[13,8]                             0.875855863102083 	(obj:0)
y[13,9]                             0.668190882307721 	(obj:0)
y[13,10]                            0.517808987925622 	(obj:0)
y[14,1]                                 1.08000000108 	(obj:0)
y[14,2]                                 1.08000000108 	(obj:0)
y[14,3]                          9.59520488711796e-08 	(obj:0)
y[14,5]                                 1.08000000108 	(obj:0)
y[14,6]                             0.710554046947761 	(obj:0)
y[14,8]                              1.02313332618749 	(obj:0)
y[14,9]                                 1.08000000108 	(obj:0)
y[14,10]                             0.83972121128344 	(obj:0)
y[15,1]                             0.786314268023329 	(obj:0)
y[15,2]                                 1.08000000108 	(obj:0)
y[15,4]                             0.722589532353278 	(obj:0)
y[15,5]                              1.07609743991692 	(obj:0)
y[15,6]                                 1.08000000108 	(obj:0)
y[15,7]                             0.736022096671095 	(obj:0)
y[15,8]                              1.07248475443367 	(obj:0)
y[15,9]                              0.66242160335279 	(obj:0)
y[15,10]                            0.706109247770713 	(obj:0)
y[16,1]                              1.07602615011365 	(obj:0)
y[16,2]                             0.533519381429928 	(obj:0)
y[16,3]                             0.607023679583673 	(obj:0)
y[16,4]                              1.06448513041458 	(obj:0)
y[16,5]                              1.07247039489082 	(obj:0)
y[16,6]                                 1.08000000108 	(obj:0)
y[16,7]                              0.39138998673046 	(obj:0)
y[16,8]                             0.642810390786081 	(obj:0)
y[16,9]                             0.610690046631203 	(obj:0)
y[16,10]                            0.794852991359453 	(obj:0)
y[18,1]                                 1.08000000108 	(obj:0)
y[18,2]                             0.666855462801538 	(obj:0)
y[18,4]                                 1.08000000108 	(obj:0)
y[18,5]                              1.01852697941642 	(obj:0)
y[18,6]                              1.02871470395863 	(obj:0)
y[18,7]                             0.820129590812033 	(obj:0)
y[18,8]                                 1.08000000108 	(obj:0)
y[18,9]                             0.810670543440326 	(obj:0)
y[18,10]                             0.62156742666288 	(obj:0)
y[19,1]                             0.825897232035544 	(obj:0)
y[19,2]                             0.276906515179611 	(obj:0)
y[19,3]                             0.750930822975561 	(obj:0)
y[19,4]                             0.938924498503934 	(obj:0)
y[19,5]                             0.777430311647013 	(obj:0)
y[19,6]                             0.587396330724173 	(obj:0)
y[19,7]                             0.650662548926462 	(obj:0)
y[19,8]                             0.949437011220627 	(obj:0)
y[19,9]                                 1.08000000108 	(obj:0)
y[19,10]                            0.810670543440326 	(obj:0)
r[0,0,0]                                           35 	(obj:0)
r[0,1,0]                                           92 	(obj:0)
r[0,0,1]                             33.4835416049125 	(obj:0)
r[0,1,1]                             86.8947696993988 	(obj:0)
r[0,0,2]                             30.6080987616567 	(obj:0)
r[0,1,2]                             79.1588863802597 	(obj:0)
r[0,0,3]                              29.186635544028 	(obj:0)
r[0,1,3]                             74.2874044744367 	(obj:0)
r[0,0,4]                             27.0100910008414 	(obj:0)
r[0,1,4]                             67.8415333102148 	(obj:0)
r[0,0,5]                             24.9171628535912 	(obj:0)
r[0,1,5]                             61.6983056032841 	(obj:0)
r[0,0,6]                             23.4781227558758 	(obj:0)
r[0,1,6]                              56.909559284239 	(obj:0)
r[0,0,7]                             21.7276874260211 	(obj:0)
r[0,1,7]                             29.6727218444206 	(obj:0)
r[0,0,8]                             20.1046637608079 	(obj:0)
r[0,1,8]                             25.7800426835188 	(obj:0)
r[0,0,9]                             10.7302965963354 	(obj:0)
r[0,1,9]                             17.4158687363673 	(obj:0)
r[0,0,10]                            4.47596694348561 	(obj:0)
r[0,1,10]                            11.7653988228765 	(obj:0)
r[1,0,0]                                           35 	(obj:0)
r[1,1,0]                                           92 	(obj:0)
r[1,0,1]                             20.5106602727281 	(obj:0)
r[1,1,1]                                      78.1606 	(obj:0)
r[1,0,2]                             19.0534000962337 	(obj:0)
r[1,1,2]                             72.1466089195157 	(obj:0)
r[1,0,3]                             16.4118513900033 	(obj:0)
r[1,1,3]                              64.736595895674 	(obj:0)
r[1,0,4]                             13.9255113176355 	(obj:0)
r[1,1,4]                             57.7319766777679 	(obj:0)
r[1,0,5]                             12.9249750924297 	(obj:0)
r[1,1,5]                             53.1076362597794 	(obj:0)
r[1,0,6]                             11.8722895018373 	(obj:0)
r[1,1,6]                             48.4946766097861 	(obj:0)
r[1,0,7]                             5.97772833867806 	(obj:0)
r[1,1,7]                             39.7320291943068 	(obj:0)
r[1,0,8]                             5.32495257534985 	(obj:0)
r[1,1,8]                             36.0306787215226 	(obj:0)
r[1,0,9]                             3.45405492851746 	(obj:0)
r[1,1,9]                             9.59905963979394 	(obj:0)
r[1,0,10]                            2.46700720398438 	(obj:0)
r[1,1,10]                            6.48470465047323 	(obj:0)
r[2,0,0]                                           35 	(obj:0)
r[2,1,0]                                           92 	(obj:0)
r[2,0,1]                             18.8038653464209 	(obj:0)
r[2,1,1]                                      78.1606 	(obj:0)
r[2,0,2]                             16.2236076665604 	(obj:0)
r[2,1,2]                             70.5129819398883 	(obj:0)
r[2,0,3]                             6.96542272256646 	(obj:0)
r[2,1,3]                             59.6274218440157 	(obj:0)
r[2,0,4]                             6.41920120490641 	(obj:0)
r[2,1,4]                             55.3757995990394 	(obj:0)
r[2,0,5]                             5.93407159547654 	(obj:0)
r[2,1,5]                             51.4564907343716 	(obj:0)
r[2,0,6]                             5.16013188315911 	(obj:0)
r[2,1,6]                             46.9077149361856 	(obj:0)
r[2,0,7]                             3.37385625028503 	(obj:0)
r[2,1,7]                             41.0203495866693 	(obj:0)
r[2,0,8]                             2.42045308685281 	(obj:0)
r[2,1,8]                             7.96181048950763 	(obj:0)
r[2,0,9]                             1.83444205698493 	(obj:0)
r[2,1,9]                             5.60628807580556 	(obj:0)
r[2,0,10]                            1.44084458161789 	(obj:0)
r[2,1,10]                            3.78736290025274 	(obj:0)
r[3,0,0]                                           35 	(obj:0)
r[3,1,0]                                           92 	(obj:0)
r[3,0,1]                             26.9297250617369 	(obj:0)
r[3,1,1]                                      84.9531 	(obj:0)
r[3,0,2]                              22.737816395984 	(obj:0)
r[3,1,2]                              75.868175530202 	(obj:0)
r[3,0,3]                                         8.75 	(obj:0)
r[3,1,3]                             62.8063294696462 	(obj:0)
r[3,0,4]                             7.79799769060278 	(obj:0)
r[3,1,4]                             57.5804322779938 	(obj:0)
r[3,0,5]                             6.93731320628441 	(obj:0)
r[3,1,5]                             52.7141552888171 	(obj:0)
r[3,0,6]                             6.23128573056081 	(obj:0)
r[3,1,6]                             48.3526895272636 	(obj:0)
r[3,0,7]                             5.54116831855455 	(obj:0)
r[3,1,7]                             44.1701808361057 	(obj:0)
r[3,0,8]                              4.6426585063335 	(obj:0)
r[3,1,8]                             39.6922965867796 	(obj:0)
r[3,0,9]                             4.05749801511435 	(obj:0)
r[3,1,9]                             10.9147415651643 	(obj:0)
r[3,0,10]                            2.80514415800277 	(obj:0)
r[3,1,10]                            7.37352178675014 	(obj:0)
r[4,0,0]                                           35 	(obj:0)
r[4,1,0]                                           92 	(obj:0)
r[4,1,1]                                      78.1606 	(obj:0)
r[4,1,2]                                  64.98825908 	(obj:0)
r[4,1,3]                              52.450824992344 	(obj:0)
r[4,1,4]                              40.517695227713 	(obj:0)
r[4,1,5]                             29.1597423177372 	(obj:0)
r[4,1,6]                             18.3492427380223 	(obj:0)
r[4,1,7]                             8.05980923804964 	(obj:0)
r[5,0,0]                                           35 	(obj:0)
r[5,1,0]                                           92 	(obj:0)
r[5,0,1]                             24.4340526514718 	(obj:0)
r[5,1,1]                             84.3656061670546 	(obj:0)
r[5,0,2]                             21.6877246610427 	(obj:0)
r[5,1,2]                             76.4858884164531 	(obj:0)
r[5,0,3]                             18.0953270312622 	(obj:0)
r[5,1,3]                              68.107332939841 	(obj:0)
r[5,0,4]                             7.69596846273886 	(obj:0)
r[5,1,4]                             56.5524928187625 	(obj:0)
r[5,0,5]                             4.49691440420355 	(obj:0)
r[5,1,5]                             48.9931220967228 	(obj:0)
r[5,0,6]                             3.03886953229709 	(obj:0)
r[5,1,6]                             18.3492427380223 	(obj:0)
r[5,0,7]                             2.22159980402864 	(obj:0)
r[5,1,7]                             15.0769068201194 	(obj:0)
r[5,0,8]                             1.70396114522951 	(obj:0)
r[5,1,8]                             5.99195911904165 	(obj:0)
r[5,0,9]                             1.34933418038222 	(obj:0)
r[5,1,9]                             4.25280520761872 	(obj:0)
r[5,0,10]                            1.09299259282057 	(obj:0)
r[5,1,10]                            2.87300910112836 	(obj:0)
r[6,0,0]                                           35 	(obj:0)
r[6,1,0]                                           92 	(obj:0)
r[6,0,1]                             33.4619092889876 	(obj:0)
r[6,1,1]                             86.7840965200647 	(obj:0)
r[6,0,2]                             32.0830667880239 	(obj:0)
r[6,1,2]                             82.4596611716498 	(obj:0)
r[6,0,3]                             30.3306486949719 	(obj:0)
r[6,1,3]                             76.6213662870016 	(obj:0)
r[6,0,4]                             28.8482091205156 	(obj:0)
r[6,1,4]                             71.6131472138612 	(obj:0)
r[6,0,5]                             25.6606037409738 	(obj:0)
r[6,1,5]                              65.270354915212 	(obj:0)
r[6,0,6]                             12.1634868031774 	(obj:0)
r[6,1,6]                             55.2359477369411 	(obj:0)
r[6,0,7]                             9.43401782908244 	(obj:0)
r[6,1,7]                             49.4696638096377 	(obj:0)
r[6,0,8]                             8.37725248363476 	(obj:0)
r[6,1,8]                             18.4243941100525 	(obj:0)
r[6,0,9]                             4.80867238646789 	(obj:0)
r[6,1,9]                             12.4467144335999 	(obj:0)
r[6,0,10]                             3.1988689857006 	(obj:0)
r[6,1,10]                            8.40845561955586 	(obj:0)
r[7,0,0]                                           35 	(obj:0)
r[7,1,0]                                           92 	(obj:0)
r[7,0,1]                             32.8112338874912 	(obj:0)
r[7,1,1]                             85.0629348590719 	(obj:0)
r[7,0,2]                             31.0217159312855 	(obj:0)
r[7,1,2]                             79.0818563230528 	(obj:0)
r[7,0,3]                             29.1110701777824 	(obj:0)
r[7,1,3]                             72.9779810275122 	(obj:0)
r[7,0,4]                             22.7962513312061 	(obj:0)
r[7,1,4]                             63.4895378810133 	(obj:0)
r[7,0,5]                             18.0730433319665 	(obj:0)
r[7,1,5]                             54.9506970616474 	(obj:0)
r[7,0,6]                             16.0660410601072 	(obj:0)
r[7,1,6]                             49.0437866843057 	(obj:0)
r[7,0,7]                             12.7122579738509 	(obj:0)
r[7,1,7]                             24.2689281417009 	(obj:0)
r[7,0,8]                             6.23723810511096 	(obj:0)
r[7,1,8]                             16.3950258762917 	(obj:0)
r[7,0,9]                             4.84923308499531 	(obj:0)
r[7,1,9]                             12.5251423242644 	(obj:0)
r[7,0,10]                            2.89654313461361 	(obj:0)
r[7,1,10]                            7.61377052527007 	(obj:0)
r[8,0,0]                                           35 	(obj:0)
r[8,1,0]                                           92 	(obj:0)
r[8,0,1]                             33.2015038839205 	(obj:0)
r[8,1,1]                                      78.1606 	(obj:0)
r[8,0,2]                             31.1482889563025 	(obj:0)
r[8,1,2]                             72.0011575096877 	(obj:0)
r[8,0,3]                             29.7511451319038 	(obj:0)
r[8,1,3]                             67.6709159296488 	(obj:0)
r[8,0,4]                              21.064823423954 	(obj:0)
r[8,1,4]                             58.9036318933397 	(obj:0)
r[8,0,5]                             19.0628556607491 	(obj:0)
r[8,1,5]                             52.9745573275841 	(obj:0)
r[8,0,6]                             17.2235329345152 	(obj:0)
r[8,1,6]                             47.4439185827106 	(obj:0)
r[8,0,7]                             11.9026894681739 	(obj:0)
r[8,1,7]                                27.6381199283 	(obj:0)
r[8,0,8]                             10.0583046866381 	(obj:0)
r[8,1,8]                             22.9350958917203 	(obj:0)
r[8,0,9]                             8.65256969886316 	(obj:0)
r[8,1,9]                             18.9472548600448 	(obj:0)
r[8,0,10]                            4.86954097479303 	(obj:0)
r[8,1,10]                            12.7999362765988 	(obj:0)
r[9,0,0]                                           35 	(obj:0)
r[9,1,0]                                           92 	(obj:0)
r[9,0,1]                             33.3115767044926 	(obj:0)
r[9,1,1]                             86.2020046948669 	(obj:0)
r[9,0,2]                             31.9491332172788 	(obj:0)
r[9,1,2]                             82.0470453130626 	(obj:0)
r[9,0,3]                             30.4365396429482 	(obj:0)
r[9,1,3]                             76.9006228599208 	(obj:0)
r[9,0,4]                             28.8459211511289 	(obj:0)
r[9,1,4]                             62.0292356697971 	(obj:0)
r[9,0,5]                             26.4249669856575 	(obj:0)
r[9,1,5]                             55.8154998224698 	(obj:0)
r[9,0,6]                             23.4172068569165 	(obj:0)
r[9,1,6]                             49.1276714822289 	(obj:0)
r[9,0,7]                             18.0478793904481 	(obj:0)
r[9,1,7]                             43.8686791138443 	(obj:0)
r[9,0,8]                             15.0591998957789 	(obj:0)
r[9,1,8]                             38.5542149476116 	(obj:0)
r[9,0,9]                             13.5986030049368 	(obj:0)
r[9,1,9]                             34.0460180710233 	(obj:0)
r[9,0,10]                            6.50025094770543 	(obj:0)
r[9,1,10]                            17.0863739196828 	(obj:0)
r[10,0,0]                                          74 	(obj:0)
r[10,1,0]                                          63 	(obj:0)
r[10,2,0]                                          99 	(obj:0)
r[10,0,1]                                          67 	(obj:0)
r[10,2,1]                                          94 	(obj:0)
r[10,0,2]                                          60 	(obj:0)
r[10,0,3]                                          53 	(obj:0)
r[10,0,4]                                          47 	(obj:0)
r[10,0,5]                                          42 	(obj:0)
r[10,0,6]                                          37 	(obj:0)
r[10,0,7]                                          32 	(obj:0)
r[10,0,8]                                          27 	(obj:0)
r[10,0,9]                                          23 	(obj:0)
r[11,0,0]                                          74 	(obj:0)
r[11,1,0]                                          63 	(obj:0)
r[11,2,0]                                          99 	(obj:0)
r[11,0,1]                                          67 	(obj:0)
r[11,2,1]                                          94 	(obj:0)
r[11,0,2]                                          60 	(obj:0)
r[11,0,3]                                          53 	(obj:0)
r[11,0,4]                                          47 	(obj:0)
r[11,0,5]                                          42 	(obj:0)
r[11,0,6]                                          37 	(obj:0)
r[11,0,7]                                          32 	(obj:0)
r[11,0,8]                                          27 	(obj:0)
r[11,0,9]                                          23 	(obj:0)
r[12,0,0]                                          74 	(obj:0)
r[12,1,0]                                          63 	(obj:0)
r[12,2,0]                                          99 	(obj:0)
r[12,0,1]                                          67 	(obj:0)
r[12,2,1]                                          94 	(obj:0)
r[12,0,2]                                          60 	(obj:0)
r[12,0,3]                                          53 	(obj:0)
r[12,0,4]                                          47 	(obj:0)
r[12,1,4]                                          63 	(obj:0)
r[12,0,5]                                          42 	(obj:0)
r[12,0,6]                                          37 	(obj:0)
r[12,0,7]                                          32 	(obj:0)
r[12,2,7]                                          99 	(obj:0)
r[12,0,8]                                          27 	(obj:0)
r[12,0,9]                                          23 	(obj:0)
r[13,0,0]                                          74 	(obj:0)
r[13,1,0]                                          63 	(obj:0)
r[13,2,0]                                          99 	(obj:0)
r[13,0,1]                                    66.47552 	(obj:0)
r[13,1,1]                             56.719868843806 	(obj:0)
r[13,2,1]                                    93.54006 	(obj:0)
r[13,0,2]                                59.483773184 	(obj:0)
r[13,1,2]                            48.7784380280564 	(obj:0)
r[13,2,2]                            51.2850596981425 	(obj:0)
r[13,0,3]                            52.9870420425728 	(obj:0)
r[13,1,3]                             41.260899852653 	(obj:0)
r[13,2,3]                            45.8591582972327 	(obj:0)
r[13,0,4]                            46.9502794659587 	(obj:0)
r[13,1,4]                            34.2006302694016 	(obj:0)
r[13,2,4]                            40.3036498379396 	(obj:0)
r[13,0,5]                            41.3409196797688 	(obj:0)
r[13,1,5]                            29.1191563993882 	(obj:0)
r[13,2,5]                             35.664704021737 	(obj:0)
r[13,0,6]                            36.1287025664412 	(obj:0)
r[13,1,6]                            23.2117658265379 	(obj:0)
r[13,2,6]                            30.0506734634922 	(obj:0)
r[13,0,7]                            31.2855104247371 	(obj:0)
r[13,1,7]                             17.151527966621 	(obj:0)
r[13,2,7]                            23.9401197473916 	(obj:0)
r[13,0,8]                            26.7852162866657 	(obj:0)
r[13,1,8]                             12.772898003572 	(obj:0)
r[13,2,8]                            18.5214534232714 	(obj:0)
r[13,0,9]                            22.6035429735698 	(obj:0)
r[13,1,9]                             9.7444503669876 	(obj:0)
r[13,2,9]                            13.7939859952045 	(obj:0)
r[13,0,10]                           8.86987618205927 	(obj:0)
r[13,1,10]                           7.55138107391532 	(obj:0)
r[13,2,10]                           9.49316477863641 	(obj:0)
r[14,0,0]                                          74 	(obj:0)
r[14,1,0]                                          63 	(obj:0)
r[14,2,0]                                          99 	(obj:0)
r[14,0,1]                                    66.47552 	(obj:0)
r[14,1,1]                            54.6718327921958 	(obj:0)
r[14,2,1]                                    93.54006 	(obj:0)
r[14,0,2]                                59.483773184 	(obj:0)
r[14,1,2]                            46.8183711152365 	(obj:0)
r[14,2,2]                            87.9678848017749 	(obj:0)
r[14,0,3]                            52.9870420425728 	(obj:0)
r[14,1,3]                             44.149723961668 	(obj:0)
r[14,2,3]                            86.9843017981867 	(obj:0)
r[14,0,4]                            46.9502794659587 	(obj:0)
r[14,1,4]                            41.6331896958529 	(obj:0)
r[14,2,4]                            85.8204369842558 	(obj:0)
r[14,0,5]                            41.3409196797688 	(obj:0)
r[14,1,5]                            34.5229306753851 	(obj:0)
r[14,2,5]                            39.6574875286991 	(obj:0)
